NAME : XML100_1334_07
DIMENSION : 101
NB_CLUSTERS : 6
CLUSTERING_ALG : KMedoids
CLUSTERING_PARAMS : k(5)
CLUSTERS
1 0
2 6 8 16 17 18 19 22 28 32 34 42 43 45 54 57 63 68 70 77 86 90 97 98 99
3 2 3 10 11 12 14 15 20 23 25 30 37 41 47 51 58 60 62 65 66 71 75 76 78 79 83 85 87 89 91 94 100
4 1 27 29 31 35 38 40 50 72 84 88 92 95
5 4 21 36 39 44 53 55 56 74 80
6 5 7 9 13 24 26 33 46 48 49 52 59 61 64 67 69 73 81 82 93 96
EOF